
  32   50
  10   13    7   11   10    8    6    8    7   13   14    7    8    4   11   12   10   10   10    2    5   13    3    5    8    9   11   10   13   11   15   12    0    0    0    0    0    0    0    0    0    0    0    0    0    0    0    0    0    0

   0   0   0   0   0   0   0   0   0   0   0   0   0   0   0   0   0   0   0   0   0   0   0   0   0   0   0   0   0   0   0   0   0   0   0   0   0   0   0   0   0   0   0   0   0   0   0   0   0   0   0  11 2 3 4 5 6 7 8 10 12 14 15 
   2   0   3   0   0   4   0   0   0   7   0   0   0   0   0   0   0   0   0   0   2   0   0   0   0   0   0   0   0   0   0   0   0   0   0   0   0   0   0   0   0   0   0   0   0   0   0   0   0   0   0   8 22 21 19 18 17 13 11 9 
   7   0   8   0   0   0   0   0   2   0   0   9   0   1   0   0   0   0   0   0   0   0   0   0   0   0   0   0   0   0   0   0   0   0   0   0   0   0   0   0   0   0   0   0   0   0   0   0   0   0   0   7 31 30 26 22 18 17 11 
   6   0   0   0   0   0   0   0   0   0   4   0   0   0   0   0   8   0   0   0   0   0   0   0   0   0   0   0   0   0   8   2   0   0   0   0   0   0   0   0   0   0   0   0   0   0   0   0   0   0   0   8 29 28 27 25 22 21 20 19 
   2   0   1   0   0   0   0   0   0   0   0   0   0   0   0   0   0   0   4   2   0   0   0   0   0   0   0   4   0   0   6   0   0   0   0   0   0   0   0   0   0   0   0   0   0   0   0   0   0   0   0   7 29 28 27 22 20 19 17 
   8   0   0   3   0   0   0   0   0   0   0   0   0   0   0   0   0   0   0   0   0   0   0   0   3   0   0   0   0   0   0   0   0   0   0   0   0   0   0   0   0   0   0   0   0   0   0   0   0   0   0   7 31 28 27 25 24 20 16 
   4   0   0   0   0   0   0   0   0   0   0   0   5   0   0   0   0   0   0   0   0   0   0   2   0   0   0   0   0   0   0   0   0   0   0   0   0   0   0   0   0   0   0   0   0   0   0   0   0   0   0   6 31 26 22 21 17 11 
   9   0   4   4   0   0   0   0   0   0   0   0   0   0   0   0   0   0   0   0   0   0   0   0   0   0   0   0   6   0   0   0   0   0   0   0   0   0   0   0   0   0   0   0   0   0   0   0   0   0   0   4 31 27 18 9 
   9   0   0   0   0   3   0   0   7   0   0   0   0   0   0   9   0   0   0   0   0   0   9   0   0   0   0   2   0   0   0   6   0   0   0   0   0   0   0   0   0   0   0   0   0   0   0   0   0   0   0   6 29 28 26 25 24 23 
   9   0   0   0   0   0   0   0   0   0   5   0   0   0   0   0   0   0   0   0   0   0   0   2   0   0   0   0   3   0   0   1   0   0   0   0   0   0   0   0   0   0   0   0   0   0   0   0   0   0   0   4 31 28 27 17 
   6   0   2   0   0   9   1   0   0   0   0   0   0   0   0   4   0   0   0   0   0   0   0   0   0   0   0   0   0   0   0   0   7   0   0   0   0   0   0   0   0   0   0   0   0   0   0   0   0   0   0   5 28 27 25 24 23 
   3   0   0   2   0   0   0   0   0   0   0   0   0   0   0   0   0   0   3   0   0   0   5   0   0   0   0   0   0   0   0   0   0   0   0   0   0   0   0   0   0   0   0   0   0   0   0   0   0   0   0   5 30 29 26 25 23 
   6   0   0   0   0   0   0   6   0   0   8   2   0   0   0   0   5   0   0  10   0   0  10   0   0   0   0   0   0   0   0   0   0   0   0   0   0   0   0   0   0   0   0   0   0   0   0   0   0   0   0   3 26 24 23 
   2   0   0   0   7   0   0   0   0   0   3   0   0   6   0   0   0   0   5   0   0   0   0   0   0   0   0   0   0   0   0   0   0   0   0   0   0   0   0   0   0   0   0   0   0   0   0   0   0   0   0   3 27 25 23 
   4   0   0   0   0   0   0   0   0   0   0   6   0   0   0   0   2   0   0   0   0   0   0   0   0   1   0   0   0   0   0   0   0   0   0   0   0   0   0   0   0   0   0   0   0   0   0   0   0   0   0   3 25 24 23 
   9   0   0   0   0   0   0   0   0   0   0   0   0   0   0   0   0   0   0   6   0   0   0   0   0   0   0   0   0   0   0   0   0   0   0   0   0   0   0   0   0   0   0   0   0   0   0   0   0   0   0   1 18 
   8   9   0   0   0   0   0   0   0   0   0   4   0   2   0   0   0   5   0   0   0   0   0   0   0   0   0   0   5   0   0   0   0   0   0   0   0   0   0   0   0   0   0   0   0   0   0   0   0   0   0   2 25 24 
   6   0   0   0   0   0   0   0   0   0   0   0   0   0   1   0   0   6   0   0   0   0   0   0   0   0   0  10   0   0   0   0   0   0   0   0   0   0   0   0   0   0   0   0   0   0   0   0   0   0   0   2 29 23 
   4   0   0   0   4   0   0   0   0   0   3   0   0   7   0   0   7   0   1   0   0   0   0   0   0   0   9   0   0   9   0   0   0   0   0   0   0   0   0   0   0   0   0   0   0   0   0   0   0   0   0   2 30 24 
   2   0   0   0   9   0   8   0   2   0   0   0   0   0   0   0   0   0   0   0   0   0   0   0   0   0   0   0   0   0   0   7   0   0   0   0   0   0   0   0   0   0   0   0   0   0   0   0   0   0   0   2 26 23 
   1   0   0   2   0   0   0   0   0   0   0   0   0   0   4   6   0   7   0   0   0   0   0   0   0   0   0   0   0   6   0   0   0   0   0   0   0   0   0   0   0   0   0   0   0   0   0   0   0   0   0   2 24 23 
   8   0   0   0   0   0   0   0   0   1   0   0   3   0   1   0   0   0   0   0   0   0   0   0   0   0   0   0   0   0   0   6   0   0   0   0   0   0   0   0   0   0   0   0   0   0   0   0   0   0   0   1 23 
   4   0   0   0   5   0   0   0   0   0   0   0   0   0   0   8   0   0   6  10   0   0   0   0   0   0   0   0   7   0   0   9   0   0   0   0   0   0   0   0   0   0   0   0   0   0   0   0   0   0   0   1 32
   7   0   0   0   0   0   0   0   0   0   2   0   0   0   0   0   0   0   0   0   0   0   0   0   2   0   0   0   0   0   0   0   0   0   0   0   0   0   0   0   0   0   0   0   0   0   0   0   0   0   0   1 32
   5   0   0   1   0   0   0   0   0   0   5   0   0   0   0   0   0   0   0   0   0   3   0   0   0   0   0   0   0   0   0   0   0   0   0   0   0   0   0   0   0   0   0   0   0   0   0   0   0   0   0   1 32
   4   0   0   0   9   0   8   0   0   4   2   0   0   5   0   0   0   0   9   0   0   0   5   0   0   0   0   0   0   0   0   5   0   0   0   0   0   0   0   0   0   0   0   0   0   0   0   0   0   0   0   1 32
   8   0   0   0   1   9   0   0   0   0   0   0   0   0   0   0   9   0   0   0   0   0   0   0   0   0   0   0   0  10   0   0   0   0   0   0   0   0   0   0   0   0   0   0   0   0   0   0   0   0   0   1 32
   3   0   0   0   0   0   0   0   0   0   7   0   0   4   0   0   0   0   0   0   0   0   0   0   0   4   0   0   0   0   0   0   8   0   0   0   0   0   0   0   0   0   0   0   0   0   0   0   0   0   0   1 32
   3   0   0   0   0   0   0   0   0   0   0   9   7   0   0   0   6   0   0   0   0   5   9   0   1   0   0   0   0   0   0   0   0   0   0   0   0   0   0   0   0   0   0   0   0   0   0   0   0   0   0   1 32
   8   0   0   0   0   0   0   0   0   0   0   0   0   0   0   0   0   0   0   0   0   0   0   0   5   8   0   0   0   0   0   0   8   0   0   0   0   0   0   0   0   0   0   0   0   0   0   0   0   0   0   1 32
   3   3   0   0   0   0   0   0   0   0   0   0   0   0   0   0   0   7   0   0   0   0   0   0   0   0   0   0   7   0   6   0   0   0   0   0   0   0   0   0   0   0   0   0   0   0   0   0   0   0   0   1 32
   0   0   0   0   0   0   0   0   0   0   0   0   0   0   0   0   0   0   0   0   0   0   0   0   0   0   0   0   0   0   0   0   0   0   0   0   0   0   0   0   0   0   0   0   0   0   0   0   0   0   0   0 
